c Created with the Wolfram Language : www.wolfram.com
c 
p edge 90 360
e 1 2
e 1 4
e 2 6
e 6 9
e 3 12
e 5 14
e 4 16
e 14 17
e 7 18
e 10 18
e 11 18
e 12 18
e 1 19
e 3 19
e 7 19
e 11 19
e 14 19
e 9 21
e 13 21
e 11 22
e 5 23
e 1 24
e 6 24
e 14 24
e 23 24
e 3 25
e 10 25
e 11 25
e 16 25
e 19 26
e 18 28
e 20 29
e 10 30
e 21 30
e 12 31
e 15 31
e 23 31
e 28 31
e 1 32
e 4 32
e 12 32
e 14 32
e 18 32
e 21 32
e 6 33
e 7 33
e 15 33
e 18 33
e 20 33
e 24 33
e 10 34
e 23 34
e 26 34
e 32 34
e 5 35
e 6 35
e 33 35
e 2 36
e 3 36
e 5 36
e 30 36
e 33 36
e 2 37
e 12 37
e 19 37
e 11 38
e 23 38
e 7 39
e 37 39
e 22 40
e 34 40
e 7 41
e 9 41
e 11 41
e 4 42
e 39 42
e 1 43
e 9 43
e 16 43
e 32 43
e 5 44
e 22 44
e 31 44
e 42 44
e 27 45
e 21 46
e 34 46
e 35 46
e 1 47
e 5 47
e 29 47
e 35 47
e 37 47
e 1 48
e 8 48
e 14 48
e 16 48
e 17 48
e 37 48
e 47 49
e 48 49
e 7 50
e 12 50
e 27 50
e 35 50
e 39 50
e 43 50
e 1 51
e 10 51
e 14 51
e 18 51
e 20 51
e 33 51
e 37 51
e 38 51
e 39 51
e 49 51
e 10 52
e 22 52
e 26 52
e 31 52
e 8 53
e 15 53
e 45 53
e 48 53
e 4 54
e 12 54
e 15 54
e 41 54
e 11 55
e 23 55
e 30 55
e 31 55
e 40 55
e 1 56
e 8 56
e 11 56
e 14 56
e 10 57
e 22 57
e 23 57
e 24 57
e 26 57
e 29 57
e 2 58
e 18 58
e 45 58
e 46 58
e 49 58
e 27 59
e 34 59
e 39 59
e 48 59
e 58 59
e 4 60
e 26 60
e 39 60
e 7 61
e 22 61
e 53 61
e 56 61
e 1 62
e 28 62
e 29 62
e 31 62
e 50 62
e 60 62
e 5 63
e 20 63
e 38 63
e 42 63
e 43 63
e 49 63
e 59 63
e 60 63
e 32 64
e 34 64
e 58 64
e 60 64
e 5 65
e 13 65
e 24 65
e 35 65
e 38 65
e 2 66
e 4 66
e 8 66
e 16 66
e 17 66
e 24 66
e 46 66
e 9 67
e 18 67
e 52 67
e 53 67
e 1 68
e 2 68
e 3 68
e 8 68
e 13 68
e 17 68
e 25 68
e 31 68
e 48 68
e 49 68
e 14 69
e 31 69
e 40 69
e 51 69
e 61 69
e 64 69
e 20 70
e 68 70
e 69 70
e 2 71
e 10 71
e 14 71
e 25 71
e 29 71
e 37 71
e 55 71
e 18 72
e 21 72
e 59 72
e 63 72
e 9 73
e 24 73
e 28 73
e 42 73
e 43 73
e 47 73
e 7 74
e 37 74
e 53 74
e 1 75
e 12 75
e 13 75
e 20 75
e 51 75
e 53 75
e 62 75
e 66 75
e 71 75
e 33 76
e 41 76
e 58 76
e 60 76
e 65 76
e 74 76
e 16 77
e 19 77
e 33 77
e 62 77
e 75 77
e 4 78
e 8 78
e 12 78
e 21 78
e 38 78
e 44 78
e 64 78
e 65 78
e 72 78
e 74 78
e 23 79
e 48 79
e 52 79
e 54 79
e 65 79
e 76 79
e 9 80
e 19 80
e 25 80
e 27 80
e 28 80
e 43 80
e 59 80
e 64 80
e 79 80
e 1 81
e 6 81
e 15 81
e 22 81
e 25 81
e 29 81
e 36 81
e 51 81
e 61 81
e 72 81
e 3 82
e 9 82
e 23 82
e 40 82
e 52 82
e 53 82
e 56 82
e 67 82
e 7 83
e 13 83
e 20 83
e 31 83
e 43 83
e 46 83
e 57 83
e 58 83
e 2 84
e 5 84
e 7 84
e 13 84
e 22 84
e 62 84
e 70 84
e 81 84
e 20 85
e 38 85
e 42 85
e 44 85
e 68 85
e 13 86
e 39 86
e 41 86
e 44 86
e 56 86
e 74 86
e 6 87
e 25 87
e 31 87
e 36 87
e 47 87
e 50 87
e 51 87
e 76 87
e 46 88
e 49 88
e 55 88
e 72 88
e 79 88
e 14 89
e 15 89
e 23 89
e 28 89
e 39 89
e 42 89
e 46 89
e 47 89
e 51 89
e 61 89
e 63 89
e 75 89
e 79 89
e 87 89
e 14 90
e 15 90
e 44 90
e 48 90
e 49 90
e 54 90
e 65 90
e 69 90
e 77 90
